0 23 41
1 36 47
2 45 46
3 39 52
4 43 50
5 46 49
6 44 47
7 43 45
8 42 46
9 42 44
10 41 43
11 35 43
12 40 40
13 37 42
14 32 40
15 29 39
16 36 37
17 25 35
18 33 34
19 35 35
20 22 33
21 28 31
22 33 34
23 17 30
24 30 30
25 30 30
26 25 26
27 24 26
28 14 25
29 18 26
30 7 24
31 19 21
32 19 21
33 19 19
34 18 18
35 12 15
36 13 16
37 13 16
38 9 16
39 13 14
40 13 13
41 9 9
42 4 10
43 5 6
44 6 6
45 5 7
46 3 6
47 4 4
48 2 2

